
Gurobi 9.5.2 (mac64[arm]) logging started Wed Apr 19 12:58:53 2023

Set parameter LogFile to value "Java/output/pure_mip/scenario_seed_2_nJob_30_machineCount_1/mip_increment_5/log.txt"
Gurobi Optimizer version 9.5.2 build v9.5.2rc0 (mac64[arm])
Thread count: 8 physical cores, 8 logical processors, using up to 8 threads
Optimize a model with 400 rows, 3772 columns and 15300 nonzeros
Model fingerprint: 0x0ba761ed
Variable types: 0 continuous, 3772 integer (3772 binary)
Coefficient statistics:
  Matrix range     [1e+00, 2e+02]
  Objective range  [2e+00, 4e+06]
  Bounds range     [1e+00, 1e+00]
  RHS range        [1e+00, 1e+00]
Presolve removed 15 rows and 475 columns
Presolve time: 0.02s
Presolved: 385 rows, 3297 columns, 13484 nonzeros
Variable types: 0 continuous, 3297 integer (3297 binary)

Root relaxation: objective 1.249133e+04, 1786 iterations, 0.03 seconds (0.04 work units)

    Nodes    |    Current Node    |     Objective Bounds      |     Work
 Expl Unexpl |  Obj  Depth IntInf | Incumbent    BestBd   Gap | It/Node Time

     0     0 12496.6837    0  178          - 12496.6837      -     -    0s
H    0     0                    1.313998e+07 12496.6837   100%     -    0s
H    0     0                    8915709.0000 12496.6837   100%     -    0s
H    0     0                    8612089.0000 12496.6837   100%     -    0s
H    0     0                    8598469.0000 12615.3023   100%     -    0s
     0     0 12615.3023    0  243 8598469.00 12615.3023   100%     -    0s
H    0     0                    6475504.0000 12615.3023   100%     -    0s
     0     0 12639.9614    0  227 6475504.00 12639.9614   100%     -    0s
     0     0 12639.9679    0  221 6475504.00 12639.9679   100%     -    0s
H    0     0                    5683344.0000 12779.5331   100%     -    0s
     0     0 12779.5331    0  289 5683344.00 12779.5331   100%     -    0s
H    0     0                    5276304.0000 12779.5331   100%     -    0s
H    0     0                    2982959.0000 12779.5331   100%     -    0s
H    0     0                    2800059.0000 12779.5331   100%     -    0s
     0     0 12809.4976    0  266 2800059.00 12809.4976   100%     -    0s
     0     0 12814.7381    0  282 2800059.00 12814.7381   100%     -    0s
     0     0 12814.8538    0  283 2800059.00 12814.8538   100%     -    0s
     0     0 12936.0866    0  312 2800059.00 12936.0866   100%     -    0s
H    0     0                    2799854.0000 12936.0866   100%     -    0s
H    0     0                    2760169.0000 12936.0866   100%     -    0s
     0     0 12945.5034    0  304 2760169.00 12945.5034   100%     -    0s
     0     0 12949.8949    0  302 2760169.00 12949.8949   100%     -    0s
     0     0 12950.3604    0  309 2760169.00 12950.3604   100%     -    0s
     0     0 12950.4488    0  309 2760169.00 12950.4488   100%     -    0s
     0     0 12979.4113    0  342 2760169.00 12979.4113   100%     -    0s
H    0     0                    1995609.0000 12979.4113  99.3%     -    0s
     0     0 12981.3989    0  332 1995609.00 12981.3989  99.3%     -    0s
     0     0 12981.3989    0  332 1995609.00 12981.3989  99.3%     -    0s
     0     0 13016.9283    0  335 1995609.00 13016.9283  99.3%     -    0s
H    0     0                    1927569.0000 13016.9283  99.3%     -    0s
H    0     0                    1927559.0000 13016.9283  99.3%     -    0s
H    0     0                    1553164.0000 13041.4251  99.2%     -    0s
     0     0 13041.4251    0  339 1553164.00 13041.4251  99.2%     -    0s
     0     0 13045.7525    0  345 1553164.00 13045.7525  99.2%     -    0s
     0     0 13047.2135    0  348 1553164.00 13047.2135  99.2%     -    0s
H    0     0                    1426329.0000 13047.3404  99.1%     -    0s
     0     0 13047.3404    0  356 1426329.00 13047.3404  99.1%     -    0s
H    0     0                    1412669.0000 13088.1178  99.1%     -    0s
H    0     0                    1387464.0000 13088.1178  99.1%     -    0s
     0     0 13088.1178    0  347 1387464.00 13088.1178  99.1%     -    0s
H    0     0                    1381244.0000 13088.1178  99.1%     -    0s
H    0     0                    1381219.0000 13088.1178  99.1%     -    0s
H    0     0                    1324164.0000 13088.1178  99.0%     -    0s
H    0     0                    1318844.0000 13092.7253  99.0%     -    0s
     0     0 13092.7253    0  369 1318844.00 13092.7253  99.0%     -    0s
     0     0 13093.0336    0  373 1318844.00 13093.0336  99.0%     -    0s
     0     0 13215.3116    0  354 1318844.00 13215.3116  99.0%     -    0s
H    0     0                    1318819.0000 13215.3116  99.0%     -    0s
     0     0 13240.4293    0  356 1318819.00 13240.4293  99.0%     -    0s
     0     0 13241.6782    0  360 1318819.00 13241.6782  99.0%     -    0s
     0     0 13242.2078    0  356 1318819.00 13242.2078  99.0%     -    0s
H    0     0                    1056504.0000 13379.3005  98.7%     -    0s
H    0     0                    1043869.0000 13379.3005  98.7%     -    0s
     0     0 13379.3005    0  356 1043869.00 13379.3005  98.7%     -    0s
H    0     0                    935384.00000 13379.3005  98.6%     -    0s
     0     0 13383.6384    0  360 935384.000 13383.6384  98.6%     -    0s
     0     0 13384.0836    0  369 935384.000 13384.0836  98.6%     -    0s
     0     0 13491.0626    0  351 935384.000 13491.0626  98.6%     -    1s
H    0     0                    924999.00000 13491.0626  98.5%     -    1s
H    0     0                    815709.00000 13493.7722  98.3%     -    1s
H    0     0                    815699.00000 13493.7722  98.3%     -    1s
H    0     0                    569664.00000 13493.7722  97.6%     -    1s
H    0     0                    403114.00000 13493.7722  96.7%     -    1s
H    0     0                    17174.000000 13493.7722  21.4%     -    1s
H    0     0                    14959.000000 13493.7722  9.79%     -    1s
     0     0 13493.7722    0  372 14959.0000 13493.7722  9.79%     -    1s
     0     0 13499.9966    0  357 14959.0000 13499.9966  9.75%     -    1s
     0     0 13503.1354    0  351 14959.0000 13503.1354  9.73%     -    1s
     0     0 13503.5685    0  356 14959.0000 13503.5685  9.73%     -    1s
     0     0 13831.4839    0  362 14959.0000 13831.4839  7.54%     -    1s
     0     0 13831.4839    0  141 14959.0000 13831.4839  7.54%     -    1s
     0     0 14032.4756    0  181 14959.0000 14032.4756  6.19%     -    1s
     0     0 14078.0200    0  182 14959.0000 14078.0200  5.89%     -    1s
     0     0 14098.2855    0  130 14959.0000 14098.2855  5.75%     -    1s
     0     0 14101.4998    0   94 14959.0000 14101.4998  5.73%     -    1s
     0     0 14101.7063    0  189 14959.0000 14101.7063  5.73%     -    1s
H    0     0                    14374.000000 14101.7063  1.89%     -    1s
H    0     0                    14334.000000 14101.7063  1.62%     -    1s
     0     0 14274.3088    0  193 14334.0000 14274.3088  0.42%     -    1s
     0     0 14274.3088    0   48 14334.0000 14274.3088  0.42%     -    1s
     0     0 14275.1364    0   53 14334.0000 14275.1364  0.41%     -    1s
H    0     0                    14329.000000 14275.1364  0.38%     -    1s
     0     0 14278.0000    0   50 14329.0000 14278.0000  0.36%     -    1s
     0     0 14278.0000    0   46 14329.0000 14278.0000  0.36%     -    1s
H    0     0                    14294.000000 14278.0000  0.11%     -    1s
     0     0 14285.0256    0   44 14294.0000 14285.0256  0.06%     -    1s
     0     0 14285.0256    0   38 14294.0000 14285.0256  0.06%     -    1s
     0     0     cutoff    0      14294.0000 14294.0000  0.00%     -    1s

Cutting planes:
  Gomory: 9
  Cover: 9
  Clique: 27
  MIR: 13
  StrongCG: 8
  GUB cover: 14
  Zero half: 12
  RLT: 3

Explored 1 nodes (21823 simplex iterations) in 1.59 seconds (2.11 work units)
Thread count was 8 (of 8 available processors)

Solution count 10: 14294 14329 14334 ... 569664

Optimal solution found (tolerance 1.00e-04)
Best objective 1.429400000000e+04, best bound 1.429400000000e+04, gap 0.0000%
